problem_generation/data/GISP/train/er_n=60_m=1058_p=0.60_SET2_setparam=100.00_alpha=0.50_944.lp
maximize
OBJ:100x0 + 100x1 + 100x2 + 100x3 + 100x4 + 100x5 + 100x6 + 100x7 + 100x8 + 100x9 + 100x10 + 100x11 + 100x12 + 100x13 + 100x14 + 100x15 + 100x16 + 100x17 + 100x18 + 100x19 + 100x20 + 100x21 + 100x22 + 100x23 + 100x24 + 100x25 + 100x26 + 100x27 + 100x28 + 100x29 + 100x30 + 100x31 + 100x32 + 100x33 + 100x34 + 100x35 + 100x36 + 100x37 + 100x38 + 100x39 + 100x40 + 100x41 + 100x42 + 100x43 + 100x44 + 100x45 + 100x46 + 100x47 + 100x48 + 100x49 + 100x50 + 100x51 + 100x52 + 100x53 + 100x54 + 100x55 + 100x56 + 100x57 + 100x58 + 100x59 - y7_17 - y15_30 - y26_39 - y7_35 - y8_9 - y8_18 - y0_14 - y21_46 - y2_32 - y2_50 - y14_15 - y3_24 - y22_37 - y22_46 - y14_51 - y15_16 - y47_48 - y17_44 - y6_34 - y29_36 - y29_45 - y6_52 - y10_22 - y25_38 - y2_54 - y22_32 - y16_56 - y17_39 - y5_46 - y9_44 - y17_57 - y29_40 - y6_47 - y51_54 - y2_49 - y3_14 - y32_50 - y22_27 - y3_23 - y13_55 - y35_55 - y16_51 - y17_34 - y5_41 - y17_43 - y36_56 - y17_52 - y28_52 - y9_48 - y5_59 - y2_26 - y10_39 - y32_36 - y13_32 - y43_45 - y13_41 - y14_18 - y43_54 - y1_48 - y13_50 - y35_50 - y24_59 - y35_59 - y5_27 - y9_25 - y28_38 - y28_47 - y9_52 - y6_28 - y21_26 - y6_37 - y21_35 - y6_46 - y39_52 - y2_12 - y54_59 - y23_53 - y2_30 - y4_49 - y4_58 - y32_40 - y1_34 - y24_36 - y43_49 - y16_32 - y1_43 - y24_45 - y35_45 - y13_54 - y16_50 - y9_11 - y9_20 - y28_33 - y6_14 - y42_44 - y50_57 - y42_53 - y20_34 - y31_34 - y10_11 - y39_47 - y23_39 - y20_52 - y16_18 - y5_8 - y1_56 - y16_54 - y46_55 - y9_15 - y6_9 - y27_50 - y30_46 - y19_55 - y30_55 - y42_57 - y23_25 - y20_56 - y1_15 - y13_26 - y4_57 - y34_58 - y24_35 - y16_31 - y13_44 - y35_44 - y5_21 - y9_19 - y6_13 - y19_32 - y8_41 - y30_41 - y0_37 - y42_52 - y30_59 - y11_55 - y20_33 - y20_42 - y23_38 - y20_51 - y31_51 - y23_47 - y4_43 - y4_52 - y16_17 - y34_53 - y1_28 - y16_35 - y1_46 - y7_53 - y27_40 - y19_45 - y27_58 - y0_41 - y30_54 - y11_50 - y20_28 - y4_11 - y0_59 - y12_24 - y23_24 - y4_20 - y12_33 - y12_42 - y4_38 - y34_39 - y1_14 - y24_25 - y37_44 - y1_32 - y3_51 - y37_53 - y16_30 - y26_34 - y7_39 - y49_54 - y7_48 - y18_48 - y7_57 - y27_35 - y0_18 - y0_27 - y11_36 - y8_49 - y30_49 - y0_45 - y20_23 - y0_54 - y41_55 - y20_32 - y31_32 - y12_37 - y53_56 - y34_52 - y14_46 - y37_57 - y15_20 - y26_29 - y38_40 - y7_34 - y15_47 - y26_56 - y0_4 - y7_52 - y8_17 - y27_30 - y27_39 - y19_35 - y11_40 - y33_46 - y44_46 - y41_59 - y25_51 - y3_32 - y22_45 - y34_47 - y14_41 - y37_43 - y45_56 - y37_52 - y14_59 - y7_20 - y18_20 - y7_29 - y18_29 - y7_38 - y7_47 - y8_12 - y0_8 - y7_56 - y18_56 - y0_17 - y29_53 - y8_30 - y19_30 - y40_53 - y0_26 - y11_26 - y21_58 - y11_35 - y52_54 - y25_37 - y10_48 - y33_50 - y2_44 - y33_59 - y34_42 - y3_36 - y14_36 - y37_38 - y45_51 - y3_45 - y3_54 - y26_28 - y15_37 - y26_37 - y8_16 - y11_12 - y29_48 - y21_44 - y21_53 - y33_36 - y25_32 - y2_48 - y22_26 - y25_59 - y34_37 - y22_44 - y37_42 - y22_53 - y36_46 - y15_23 - y55_59 - y7_19 - y18_28 - y29_34 - y8_11 - y6_41 - y29_43 - y48_56 - y0_16 - y21_48 - y6_59 - y10_20 - y10_29 - y25_45 - y10_56 - y51_57 - y25_54 - y14_17 - y3_35 - y14_44 - y17_46 - y18_23 - y9_42 - y36_59 - y28_55 - y9_51 - y6_36 - y29_47 - y21_43 - y54_58 - y33_35 - y10_42 - y25_40 - y2_47 - y3_12 - y3_21 - y3_30 - y17_32 - y55_58 - y17_41 - y36_54 - y5_57 - y6_22 - y17_59 - y6_31 - y6_40 - y40_51 - y21_47 - y39_55 - y10_28 - y25_26 - y10_37 - y2_33 - y32_34 - y2_42 - y3_7 - y32_43 - y35_39 - y43_52 - y24_48 - y35_48 - y14_25 - y16_53 - y5_34 - y17_36 - y28_36 - y5_43 - y36_58 - y6_26 - y21_24 - y20_46 - y10_23 - y2_19 - y31_55 - y10_32 - y54_57 - y2_37 - y32_47 - y1_41 - y24_52 - y17_22 - y9_18 - y5_29 - y17_31 - y28_31 - y9_27 - y5_38 - y28_40 - y17_49 - y28_49 - y5_56 - y50_55 - y6_30 - y42_51 - y2_5 - y31_50 - y2_23 - y4_42 - y31_59 - y23_55 - y32_33 - y1_27 - y51_55 - y1_36 - y13_38 - y32_51 - y43_51 - y1_45 - y13_47 - y16_43 - y35_56 - y5_15 - y5_24 - y9_22 - y28_44 - y5_51 - y50_59 - y30_53 - y0_58 - y20_36 - y31_36 - y10_13 - y31_45 - y39_58 - y54_56 - y12_50 - y23_59 - y13_24 - y1_22 - y1_31 - y24_33 - y43_46 - y16_29 - y17_21 - y49_53 - y8_48 - y0_44 - y8_57 - y19_57 - y30_57 - y11_53 - y12_18 - y39_44 - y12_27 - y2_4 - y20_40 - y31_40 - y39_53 - y20_49 - y4_32 - y12_45 - y1_8 - y20_58 - y4_41 - y13_28 - y24_28 - y4_59 - y24_37 - y35_37 - y16_42 - y38_39 - y46_52 - y9_12 - y49_57 - y7_51 - y19_34 - y0_39 - y8_52 - y19_52 - y30_52 - y12_13 - y31_35 - y4_18 - y12_31 - y31_44 - y12_40 - y1_3 - y4_36 - y4_54 - y34_55 - y16_28 - y1_39 - y14_58 - y5_9 - y46_56 - y15_50 - y7_46 - y7_55 - y0_25 - y11_25 - y8_38 - y0_34 - y11_34 - y11_43 - y19_56 - y20_21 - y30_56 - y12_17 - y4_22 - y34_41 - y1_16 - y53_54 - y22_57 - y56_59 - y37_55 - y15_36 - y7_32 - y26_45 - y26_54 - y38_56 - y18_59 - y19_24 - y0_20 - y30_51 - y0_47 - y41_48 - y23_30 - y25_49 - y4_26 - y1_11 - y22_43 - y53_58 - y3_39 - y14_48 - y37_50 - y3_57 - y15_40 - y26_40 - y26_49 - y8_10 - y7_54 - y8_19 - y11_15 - y19_28 - y11_24 - y8_37 - y30_37 - y11_42 - y41_52 - y4_12 - y10_46 - y33_48 - y44_48 - y4_21 - y10_55 - y33_57 - y3_34 - y22_47 - y34_49 - y14_43 - y37_54 - y7_13 - y7_22 - y15_35 - y0_1 - y7_49 - y8_14 - y18_49 - y0_10 - y48_59 - y0_19 - y40_55 - y21_51 - y10_41 - y10_50 - y33_52 - y2_46 - y25_57 - y22_51 - y3_56
 Subject to
C1: x0+x1-y0_1 <=1 
C2: x0+x3 <=1 
C3: x0+x4-y0_4 <=1 
C4: x0+x7 <=1 
C5: x0+x8-y0_8 <=1 
C6: x0+x10-y0_10 <=1 
C7: x0+x12 <=1 
C8: x0+x14-y0_14 <=1 
C9: x0+x16-y0_16 <=1 
C10: x0+x17-y0_17 <=1 
C11: x0+x18-y0_18 <=1 
C12: x0+x19-y0_19 <=1 
C13: x0+x20-y0_20 <=1 
C14: x0+x22 <=1 
C15: x0+x25-y0_25 <=1 
C16: x0+x26-y0_26 <=1 
C17: x0+x27-y0_27 <=1 
C18: x0+x34-y0_34 <=1 
C19: x0+x36 <=1 
C20: x0+x37-y0_37 <=1 
C21: x0+x38 <=1 
C22: x0+x39-y0_39 <=1 
C23: x0+x41-y0_41 <=1 
C24: x0+x42 <=1 
C25: x0+x43 <=1 
C26: x0+x44-y0_44 <=1 
C27: x0+x45-y0_45 <=1 
C28: x0+x47-y0_47 <=1 
C29: x0+x49 <=1 
C30: x0+x50 <=1 
C31: x0+x51 <=1 
C32: x0+x54-y0_54 <=1 
C33: x0+x57 <=1 
C34: x0+x58-y0_58 <=1 
C35: x0+x59-y0_59 <=1 
C36: x1+x3-y1_3 <=1 
C37: x1+x4 <=1 
C38: x1+x6 <=1 
C39: x1+x7 <=1 
C40: x1+x8-y1_8 <=1 
C41: x1+x10 <=1 
C42: x1+x11-y1_11 <=1 
C43: x1+x12 <=1 
C44: x1+x14-y1_14 <=1 
C45: x1+x15-y1_15 <=1 
C46: x1+x16-y1_16 <=1 
C47: x1+x17 <=1 
C48: x1+x18 <=1 
C49: x1+x19 <=1 
C50: x1+x22-y1_22 <=1 
C51: x1+x25 <=1 
C52: x1+x26 <=1 
C53: x1+x27-y1_27 <=1 
C54: x1+x28-y1_28 <=1 
C55: x1+x31-y1_31 <=1 
C56: x1+x32-y1_32 <=1 
C57: x1+x34-y1_34 <=1 
C58: x1+x35 <=1 
C59: x1+x36-y1_36 <=1 
C60: x1+x39-y1_39 <=1 
C61: x1+x41-y1_41 <=1 
C62: x1+x43-y1_43 <=1 
C63: x1+x45-y1_45 <=1 
C64: x1+x46-y1_46 <=1 
C65: x1+x48-y1_48 <=1 
C66: x1+x49 <=1 
C67: x1+x50 <=1 
C68: x1+x55 <=1 
C69: x1+x56-y1_56 <=1 
C70: x1+x57 <=1 
C71: x1+x58 <=1 
C72: x1+x59 <=1 
C73: x2+x3 <=1 
C74: x2+x4-y2_4 <=1 
C75: x2+x5-y2_5 <=1 
C76: x2+x6 <=1 
C77: x2+x9 <=1 
C78: x2+x12-y2_12 <=1 
C79: x2+x13 <=1 
C80: x2+x15 <=1 
C81: x2+x18 <=1 
C82: x2+x19-y2_19 <=1 
C83: x2+x22 <=1 
C84: x2+x23-y2_23 <=1 
C85: x2+x26-y2_26 <=1 
C86: x2+x30-y2_30 <=1 
C87: x2+x31 <=1 
C88: x2+x32-y2_32 <=1 
C89: x2+x33-y2_33 <=1 
C90: x2+x34 <=1 
C91: x2+x37-y2_37 <=1 
C92: x2+x42-y2_42 <=1 
C93: x2+x44-y2_44 <=1 
C94: x2+x46-y2_46 <=1 
C95: x2+x47-y2_47 <=1 
C96: x2+x48-y2_48 <=1 
C97: x2+x49-y2_49 <=1 
C98: x2+x50-y2_50 <=1 
C99: x2+x52 <=1 
C100: x2+x54-y2_54 <=1 
C101: x2+x55 <=1 
C102: x2+x59 <=1 
C103: x3+x4 <=1 
C104: x3+x7-y3_7 <=1 
C105: x3+x12-y3_12 <=1 
C106: x3+x13 <=1 
C107: x3+x14-y3_14 <=1 
C108: x3+x16 <=1 
C109: x3+x17 <=1 
C110: x3+x18 <=1 
C111: x3+x21-y3_21 <=1 
C112: x3+x23-y3_23 <=1 
C113: x3+x24-y3_24 <=1 
C114: x3+x25 <=1 
C115: x3+x27 <=1 
C116: x3+x30-y3_30 <=1 
C117: x3+x32-y3_32 <=1 
C118: x3+x33 <=1 
C119: x3+x34-y3_34 <=1 
C120: x3+x35-y3_35 <=1 
C121: x3+x36-y3_36 <=1 
C122: x3+x39-y3_39 <=1 
C123: x3+x40 <=1 
C124: x3+x41 <=1 
C125: x3+x44 <=1 
C126: x3+x45-y3_45 <=1 
C127: x3+x46 <=1 
C128: x3+x48 <=1 
C129: x3+x49 <=1 
C130: x3+x51-y3_51 <=1 
C131: x3+x54-y3_54 <=1 
C132: x3+x55 <=1 
C133: x3+x56-y3_56 <=1 
C134: x3+x57-y3_57 <=1 
C135: x4+x9 <=1 
C136: x4+x11-y4_11 <=1 
C137: x4+x12-y4_12 <=1 
C138: x4+x13 <=1 
C139: x4+x18-y4_18 <=1 
C140: x4+x19 <=1 
C141: x4+x20-y4_20 <=1 
C142: x4+x21-y4_21 <=1 
C143: x4+x22-y4_22 <=1 
C144: x4+x24 <=1 
C145: x4+x25 <=1 
C146: x4+x26-y4_26 <=1 
C147: x4+x27 <=1 
C148: x4+x30 <=1 
C149: x4+x31 <=1 
C150: x4+x32-y4_32 <=1 
C151: x4+x34 <=1 
C152: x4+x36-y4_36 <=1 
C153: x4+x37 <=1 
C154: x4+x38-y4_38 <=1 
C155: x4+x39 <=1 
C156: x4+x40 <=1 
C157: x4+x41-y4_41 <=1 
C158: x4+x42-y4_42 <=1 
C159: x4+x43-y4_43 <=1 
C160: x4+x46 <=1 
C161: x4+x47 <=1 
C162: x4+x48 <=1 
C163: x4+x49-y4_49 <=1 
C164: x4+x50 <=1 
C165: x4+x52-y4_52 <=1 
C166: x4+x54-y4_54 <=1 
C167: x4+x57-y4_57 <=1 
C168: x4+x58-y4_58 <=1 
C169: x4+x59-y4_59 <=1 
C170: x5+x6 <=1 
C171: x5+x8-y5_8 <=1 
C172: x5+x9-y5_9 <=1 
C173: x5+x10 <=1 
C174: x5+x11 <=1 
C175: x5+x12 <=1 
C176: x5+x15-y5_15 <=1 
C177: x5+x17 <=1 
C178: x5+x18 <=1 
C179: x5+x20 <=1 
C180: x5+x21-y5_21 <=1 
C181: x5+x23 <=1 
C182: x5+x24-y5_24 <=1 
C183: x5+x26 <=1 
C184: x5+x27-y5_27 <=1 
C185: x5+x29-y5_29 <=1 
C186: x5+x34-y5_34 <=1 
C187: x5+x35 <=1 
C188: x5+x36 <=1 
C189: x5+x37 <=1 
C190: x5+x38-y5_38 <=1 
C191: x5+x41-y5_41 <=1 
C192: x5+x43-y5_43 <=1 
C193: x5+x44 <=1 
C194: x5+x45 <=1 
C195: x5+x46-y5_46 <=1 
C196: x5+x48 <=1 
C197: x5+x49 <=1 
C198: x5+x51-y5_51 <=1 
C199: x5+x52 <=1 
C200: x5+x53 <=1 
C201: x5+x55 <=1 
C202: x5+x56-y5_56 <=1 
C203: x5+x57-y5_57 <=1 
C204: x5+x59-y5_59 <=1 
C205: x6+x9-y6_9 <=1 
C206: x6+x13-y6_13 <=1 
C207: x6+x14-y6_14 <=1 
C208: x6+x17 <=1 
C209: x6+x22-y6_22 <=1 
C210: x6+x26-y6_26 <=1 
C211: x6+x28-y6_28 <=1 
C212: x6+x30-y6_30 <=1 
C213: x6+x31-y6_31 <=1 
C214: x6+x34-y6_34 <=1 
C215: x6+x36-y6_36 <=1 
C216: x6+x37-y6_37 <=1 
C217: x6+x40-y6_40 <=1 
C218: x6+x41-y6_41 <=1 
C219: x6+x43 <=1 
C220: x6+x45 <=1 
C221: x6+x46-y6_46 <=1 
C222: x6+x47-y6_47 <=1 
C223: x6+x52-y6_52 <=1 
C224: x6+x53 <=1 
C225: x6+x54 <=1 
C226: x6+x57 <=1 
C227: x6+x58 <=1 
C228: x6+x59-y6_59 <=1 
C229: x7+x9 <=1 
C230: x7+x10 <=1 
C231: x7+x11 <=1 
C232: x7+x12 <=1 
C233: x7+x13-y7_13 <=1 
C234: x7+x14 <=1 
C235: x7+x17-y7_17 <=1 
C236: x7+x18 <=1 
C237: x7+x19-y7_19 <=1 
C238: x7+x20-y7_20 <=1 
C239: x7+x21 <=1 
C240: x7+x22-y7_22 <=1 
C241: x7+x23 <=1 
C242: x7+x26 <=1 
C243: x7+x27 <=1 
C244: x7+x29-y7_29 <=1 
C245: x7+x32-y7_32 <=1 
C246: x7+x33 <=1 
C247: x7+x34-y7_34 <=1 
C248: x7+x35-y7_35 <=1 
C249: x7+x37 <=1 
C250: x7+x38-y7_38 <=1 
C251: x7+x39-y7_39 <=1 
C252: x7+x42 <=1 
C253: x7+x44 <=1 
C254: x7+x45 <=1 
C255: x7+x46-y7_46 <=1 
C256: x7+x47-y7_47 <=1 
C257: x7+x48-y7_48 <=1 
C258: x7+x49-y7_49 <=1 
C259: x7+x51-y7_51 <=1 
C260: x7+x52-y7_52 <=1 
C261: x7+x53-y7_53 <=1 
C262: x7+x54-y7_54 <=1 
C263: x7+x55-y7_55 <=1 
C264: x7+x56-y7_56 <=1 
C265: x7+x57-y7_57 <=1 
C266: x7+x58 <=1 
C267: x8+x9-y8_9 <=1 
C268: x8+x10-y8_10 <=1 
C269: x8+x11-y8_11 <=1 
C270: x8+x12-y8_12 <=1 
C271: x8+x13 <=1 
C272: x8+x14-y8_14 <=1 
C273: x8+x16-y8_16 <=1 
C274: x8+x17-y8_17 <=1 
C275: x8+x18-y8_18 <=1 
C276: x8+x19-y8_19 <=1 
C277: x8+x20 <=1 
C278: x8+x21 <=1 
C279: x8+x22 <=1 
C280: x8+x25 <=1 
C281: x8+x28 <=1 
C282: x8+x30-y8_30 <=1 
C283: x8+x32 <=1 
C284: x8+x33 <=1 
C285: x8+x34 <=1 
C286: x8+x37-y8_37 <=1 
C287: x8+x38-y8_38 <=1 
C288: x8+x39 <=1 
C289: x8+x41-y8_41 <=1 
C290: x8+x43 <=1 
C291: x8+x44 <=1 
C292: x8+x47 <=1 
C293: x8+x48-y8_48 <=1 
C294: x8+x49-y8_49 <=1 
C295: x8+x51 <=1 
C296: x8+x52-y8_52 <=1 
C297: x8+x53 <=1 
C298: x8+x55 <=1 
C299: x8+x57-y8_57 <=1 
C300: x9+x11-y9_11 <=1 
C301: x9+x12-y9_12 <=1 
C302: x9+x13 <=1 
C303: x9+x15-y9_15 <=1 
C304: x9+x17 <=1 
C305: x9+x18-y9_18 <=1 
C306: x9+x19-y9_19 <=1 
C307: x9+x20-y9_20 <=1 
C308: x9+x21 <=1 
C309: x9+x22-y9_22 <=1 
C310: x9+x23 <=1 
C311: x9+x25-y9_25 <=1 
C312: x9+x27-y9_27 <=1 
C313: x9+x32 <=1 
C314: x9+x34 <=1 
C315: x9+x39 <=1 
C316: x9+x42-y9_42 <=1 
C317: x9+x43 <=1 
C318: x9+x44-y9_44 <=1 
C319: x9+x46 <=1 
C320: x9+x47 <=1 
C321: x9+x48-y9_48 <=1 
C322: x9+x51-y9_51 <=1 
C323: x9+x52-y9_52 <=1 
C324: x9+x53 <=1 
C325: x9+x56 <=1 
C326: x9+x58 <=1 
C327: x10+x11-y10_11 <=1 
C328: x10+x12 <=1 
C329: x10+x13-y10_13 <=1 
C330: x10+x17 <=1 
C331: x10+x18 <=1 
C332: x10+x19 <=1 
C333: x10+x20-y10_20 <=1 
C334: x10+x22-y10_22 <=1 
C335: x10+x23-y10_23 <=1 
C336: x10+x26 <=1 
C337: x10+x27 <=1 
C338: x10+x28-y10_28 <=1 
C339: x10+x29-y10_29 <=1 
C340: x10+x31 <=1 
C341: x10+x32-y10_32 <=1 
C342: x10+x34 <=1 
C343: x10+x36 <=1 
C344: x10+x37-y10_37 <=1 
C345: x10+x38 <=1 
C346: x10+x39-y10_39 <=1 
C347: x10+x40 <=1 
C348: x10+x41-y10_41 <=1 
C349: x10+x42-y10_42 <=1 
C350: x10+x46-y10_46 <=1 
C351: x10+x48-y10_48 <=1 
C352: x10+x50-y10_50 <=1 
C353: x10+x52 <=1 
C354: x10+x54 <=1 
C355: x10+x55-y10_55 <=1 
C356: x10+x56-y10_56 <=1 
C357: x10+x59 <=1 
C358: x11+x12-y11_12 <=1 
C359: x11+x13 <=1 
C360: x11+x15-y11_15 <=1 
C361: x11+x18 <=1 
C362: x11+x19 <=1 
C363: x11+x20 <=1 
C364: x11+x22 <=1 
C365: x11+x24-y11_24 <=1 
C366: x11+x25-y11_25 <=1 
C367: x11+x26-y11_26 <=1 
C368: x11+x27 <=1 
C369: x11+x30 <=1 
C370: x11+x31 <=1 
C371: x11+x34-y11_34 <=1 
C372: x11+x35-y11_35 <=1 
C373: x11+x36-y11_36 <=1 
C374: x11+x39 <=1 
C375: x11+x40-y11_40 <=1 
C376: x11+x41 <=1 
C377: x11+x42-y11_42 <=1 
C378: x11+x43-y11_43 <=1 
C379: x11+x46 <=1 
C380: x11+x48 <=1 
C381: x11+x50-y11_50 <=1 
C382: x11+x51 <=1 
C383: x11+x52 <=1 
C384: x11+x53-y11_53 <=1 
C385: x11+x54 <=1 
C386: x11+x55-y11_55 <=1 
C387: x12+x13-y12_13 <=1 
C388: x12+x16 <=1 
C389: x12+x17-y12_17 <=1 
C390: x12+x18-y12_18 <=1 
C391: x12+x22 <=1 
C392: x12+x24-y12_24 <=1 
C393: x12+x25 <=1 
C394: x12+x26 <=1 
C395: x12+x27-y12_27 <=1 
C396: x12+x29 <=1 
C397: x12+x31-y12_31 <=1 
C398: x12+x32 <=1 
C399: x12+x33-y12_33 <=1 
C400: x12+x34 <=1 
C401: x12+x35 <=1 
C402: x12+x37-y12_37 <=1 
C403: x12+x38 <=1 
C404: x12+x40-y12_40 <=1 
C405: x12+x42-y12_42 <=1 
C406: x12+x43 <=1 
C407: x12+x44 <=1 
C408: x12+x45-y12_45 <=1 
C409: x12+x46 <=1 
C410: x12+x47 <=1 
C411: x12+x50-y12_50 <=1 
C412: x12+x51 <=1 
C413: x12+x52 <=1 
C414: x12+x53 <=1 
C415: x12+x54 <=1 
C416: x12+x56 <=1 
C417: x12+x57 <=1 
C418: x12+x58 <=1 
C419: x13+x17 <=1 
C420: x13+x18 <=1 
C421: x13+x20 <=1 
C422: x13+x22 <=1 
C423: x13+x24-y13_24 <=1 
C424: x13+x25 <=1 
C425: x13+x26-y13_26 <=1 
C426: x13+x28-y13_28 <=1 
C427: x13+x32-y13_32 <=1 
C428: x13+x34 <=1 
C429: x13+x38-y13_38 <=1 
C430: x13+x39 <=1 
C431: x13+x41-y13_41 <=1 
C432: x13+x43 <=1 
C433: x13+x44-y13_44 <=1 
C434: x13+x45 <=1 
C435: x13+x47-y13_47 <=1 
C436: x13+x49 <=1 
C437: x13+x50-y13_50 <=1 
C438: x13+x51 <=1 
C439: x13+x52 <=1 
C440: x13+x53 <=1 
C441: x13+x54-y13_54 <=1 
C442: x13+x55-y13_55 <=1 
C443: x13+x56 <=1 
C444: x14+x15-y14_15 <=1 
C445: x14+x17-y14_17 <=1 
C446: x14+x18-y14_18 <=1 
C447: x14+x23 <=1 
C448: x14+x25-y14_25 <=1 
C449: x14+x26 <=1 
C450: x14+x29 <=1 
C451: x14+x31 <=1 
C452: x14+x32 <=1 
C453: x14+x35 <=1 
C454: x14+x36-y14_36 <=1 
C455: x14+x39 <=1 
C456: x14+x41-y14_41 <=1 
C457: x14+x43-y14_43 <=1 
C458: x14+x44-y14_44 <=1 
C459: x14+x46-y14_46 <=1 
C460: x14+x47 <=1 
C461: x14+x48-y14_48 <=1 
C462: x14+x49 <=1 
C463: x14+x51-y14_51 <=1 
C464: x14+x53 <=1 
C465: x14+x58-y14_58 <=1 
C466: x14+x59-y14_59 <=1 
C467: x15+x16-y15_16 <=1 
C468: x15+x18 <=1 
C469: x15+x20-y15_20 <=1 
C470: x15+x23-y15_23 <=1 
C471: x15+x24 <=1 
C472: x15+x25 <=1 
C473: x15+x26 <=1 
C474: x15+x27 <=1 
C475: x15+x28 <=1 
C476: x15+x30-y15_30 <=1 
C477: x15+x32 <=1 
C478: x15+x35-y15_35 <=1 
C479: x15+x36-y15_36 <=1 
C480: x15+x37-y15_37 <=1 
C481: x15+x39 <=1 
C482: x15+x40-y15_40 <=1 
C483: x15+x41 <=1 
C484: x15+x43 <=1 
C485: x15+x44 <=1 
C486: x15+x45 <=1 
C487: x15+x46 <=1 
C488: x15+x47-y15_47 <=1 
C489: x15+x48 <=1 
C490: x15+x50-y15_50 <=1 
C491: x15+x51 <=1 
C492: x15+x52 <=1 
C493: x15+x53 <=1 
C494: x15+x55 <=1 
C495: x15+x59 <=1 
C496: x16+x17-y16_17 <=1 
C497: x16+x18-y16_18 <=1 
C498: x16+x19 <=1 
C499: x16+x21 <=1 
C500: x16+x22 <=1 
C501: x16+x23 <=1 
C502: x16+x24 <=1 
C503: x16+x28-y16_28 <=1 
C504: x16+x29-y16_29 <=1 
C505: x16+x30-y16_30 <=1 
C506: x16+x31-y16_31 <=1 
C507: x16+x32-y16_32 <=1 
C508: x16+x33 <=1 
C509: x16+x34 <=1 
C510: x16+x35-y16_35 <=1 
C511: x16+x38 <=1 
C512: x16+x39 <=1 
C513: x16+x40 <=1 
C514: x16+x41 <=1 
C515: x16+x42-y16_42 <=1 
C516: x16+x43-y16_43 <=1 
C517: x16+x45 <=1 
C518: x16+x46 <=1 
C519: x16+x50-y16_50 <=1 
C520: x16+x51-y16_51 <=1 
C521: x16+x53-y16_53 <=1 
C522: x16+x54-y16_54 <=1 
C523: x16+x55 <=1 
C524: x16+x56-y16_56 <=1 
C525: x16+x57 <=1 
C526: x17+x18 <=1 
C527: x17+x20 <=1 
C528: x17+x21-y17_21 <=1 
C529: x17+x22-y17_22 <=1 
C530: x17+x24 <=1 
C531: x17+x26 <=1 
C532: x17+x30 <=1 
C533: x17+x31-y17_31 <=1 
C534: x17+x32-y17_32 <=1 
C535: x17+x34-y17_34 <=1 
C536: x17+x35 <=1 
C537: x17+x36-y17_36 <=1 
C538: x17+x39-y17_39 <=1 
C539: x17+x41-y17_41 <=1 
C540: x17+x43-y17_43 <=1 
C541: x17+x44-y17_44 <=1 
C542: x17+x46-y17_46 <=1 
C543: x17+x47 <=1 
C544: x17+x48 <=1 
C545: x17+x49-y17_49 <=1 
C546: x17+x50 <=1 
C547: x17+x51 <=1 
C548: x17+x52-y17_52 <=1 
C549: x17+x54 <=1 
C550: x17+x57-y17_57 <=1 
C551: x17+x59-y17_59 <=1 
C552: x18+x19 <=1 
C553: x18+x20-y18_20 <=1 
C554: x18+x23-y18_23 <=1 
C555: x18+x24 <=1 
C556: x18+x28-y18_28 <=1 
C557: x18+x29-y18_29 <=1 
C558: x18+x30 <=1 
C559: x18+x32 <=1 
C560: x18+x33 <=1 
C561: x18+x34 <=1 
C562: x18+x39 <=1 
C563: x18+x40 <=1 
C564: x18+x44 <=1 
C565: x18+x45 <=1 
C566: x18+x48-y18_48 <=1 
C567: x18+x49-y18_49 <=1 
C568: x18+x50 <=1 
C569: x18+x51 <=1 
C570: x18+x52 <=1 
C571: x18+x54 <=1 
C572: x18+x56-y18_56 <=1 
C573: x18+x57 <=1 
C574: x18+x59-y18_59 <=1 
C575: x19+x22 <=1 
C576: x19+x23 <=1 
C577: x19+x24-y19_24 <=1 
C578: x19+x27 <=1 
C579: x19+x28-y19_28 <=1 
C580: x19+x30-y19_30 <=1 
C581: x19+x31 <=1 
C582: x19+x32-y19_32 <=1 
C583: x19+x33 <=1 
C584: x19+x34-y19_34 <=1 
C585: x19+x35-y19_35 <=1 
C586: x19+x38 <=1 
C587: x19+x42 <=1 
C588: x19+x43 <=1 
C589: x19+x44 <=1 
C590: x19+x45-y19_45 <=1 
C591: x19+x46 <=1 
C592: x19+x47 <=1 
C593: x19+x51 <=1 
C594: x19+x52-y19_52 <=1 
C595: x19+x53 <=1 
C596: x19+x55-y19_55 <=1 
C597: x19+x56-y19_56 <=1 
C598: x19+x57-y19_57 <=1 
C599: x20+x21-y20_21 <=1 
C600: x20+x22 <=1 
C601: x20+x23-y20_23 <=1 
C602: x20+x24 <=1 
C603: x20+x27 <=1 
C604: x20+x28-y20_28 <=1 
C605: x20+x31 <=1 
C606: x20+x32-y20_32 <=1 
C607: x20+x33-y20_33 <=1 
C608: x20+x34-y20_34 <=1 
C609: x20+x35 <=1 
C610: x20+x36-y20_36 <=1 
C611: x20+x38 <=1 
C612: x20+x40-y20_40 <=1 
C613: x20+x42-y20_42 <=1 
C614: x20+x43 <=1 
C615: x20+x46-y20_46 <=1 
C616: x20+x49-y20_49 <=1 
C617: x20+x51-y20_51 <=1 
C618: x20+x52-y20_52 <=1 
C619: x20+x53 <=1 
C620: x20+x56-y20_56 <=1 
C621: x20+x58-y20_58 <=1 
C622: x20+x59 <=1 
C623: x21+x23 <=1 
C624: x21+x24-y21_24 <=1 
C625: x21+x26-y21_26 <=1 
C626: x21+x28 <=1 
C627: x21+x30 <=1 
C628: x21+x31 <=1 
C629: x21+x33 <=1 
C630: x21+x34 <=1 
C631: x21+x35-y21_35 <=1 
C632: x21+x37 <=1 
C633: x21+x38 <=1 
C634: x21+x39 <=1 
C635: x21+x43-y21_43 <=1 
C636: x21+x44-y21_44 <=1 
C637: x21+x45 <=1 
C638: x21+x46-y21_46 <=1 
C639: x21+x47-y21_47 <=1 
C640: x21+x48-y21_48 <=1 
C641: x21+x49 <=1 
C642: x21+x50 <=1 
C643: x21+x51-y21_51 <=1 
C644: x21+x52 <=1 
C645: x21+x53-y21_53 <=1 
C646: x21+x54 <=1 
C647: x21+x55 <=1 
C648: x21+x56 <=1 
C649: x21+x58-y21_58 <=1 
C650: x22+x23 <=1 
C651: x22+x26-y22_26 <=1 
C652: x22+x27-y22_27 <=1 
C653: x22+x28 <=1 
C654: x22+x30 <=1 
C655: x22+x31 <=1 
C656: x22+x32-y22_32 <=1 
C657: x22+x34 <=1 
C658: x22+x36 <=1 
C659: x22+x37-y22_37 <=1 
C660: x22+x38 <=1 
C661: x22+x39 <=1 
C662: x22+x41 <=1 
C663: x22+x42 <=1 
C664: x22+x43-y22_43 <=1 
C665: x22+x44-y22_44 <=1 
C666: x22+x45-y22_45 <=1 
C667: x22+x46-y22_46 <=1 
C668: x22+x47-y22_47 <=1 
C669: x22+x48 <=1 
C670: x22+x50 <=1 
C671: x22+x51-y22_51 <=1 
C672: x22+x53-y22_53 <=1 
C673: x22+x55 <=1 
C674: x22+x57-y22_57 <=1 
C675: x22+x58 <=1 
C676: x22+x59 <=1 
C677: x23+x24-y23_24 <=1 
C678: x23+x25-y23_25 <=1 
C679: x23+x30-y23_30 <=1 
C680: x23+x33 <=1 
C681: x23+x34 <=1 
C682: x23+x38-y23_38 <=1 
C683: x23+x39-y23_39 <=1 
C684: x23+x41 <=1 
C685: x23+x47-y23_47 <=1 
C686: x23+x53-y23_53 <=1 
C687: x23+x55-y23_55 <=1 
C688: x23+x58 <=1 
C689: x23+x59-y23_59 <=1 
C690: x24+x25-y24_25 <=1 
C691: x24+x28-y24_28 <=1 
C692: x24+x32 <=1 
C693: x24+x33-y24_33 <=1 
C694: x24+x34 <=1 
C695: x24+x35-y24_35 <=1 
C696: x24+x36-y24_36 <=1 
C697: x24+x37-y24_37 <=1 
C698: x24+x38 <=1 
C699: x24+x39 <=1 
C700: x24+x40 <=1 
C701: x24+x43 <=1 
C702: x24+x44 <=1 
C703: x24+x45-y24_45 <=1 
C704: x24+x46 <=1 
C705: x24+x47 <=1 
C706: x24+x48-y24_48 <=1 
C707: x24+x49 <=1 
C708: x24+x52-y24_52 <=1 
C709: x24+x53 <=1 
C710: x24+x54 <=1 
C711: x24+x56 <=1 
C712: x24+x59-y24_59 <=1 
C713: x25+x26-y25_26 <=1 
C714: x25+x27 <=1 
C715: x25+x28 <=1 
C716: x25+x30 <=1 
C717: x25+x32-y25_32 <=1 
C718: x25+x35 <=1 
C719: x25+x37-y25_37 <=1 
C720: x25+x38-y25_38 <=1 
C721: x25+x39 <=1 
C722: x25+x40-y25_40 <=1 
C723: x25+x45-y25_45 <=1 
C724: x25+x46 <=1 
C725: x25+x47 <=1 
C726: x25+x48 <=1 
C727: x25+x49-y25_49 <=1 
C728: x25+x50 <=1 
C729: x25+x51-y25_51 <=1 
C730: x25+x53 <=1 
C731: x25+x54-y25_54 <=1 
C732: x25+x55 <=1 
C733: x25+x56 <=1 
C734: x25+x57-y25_57 <=1 
C735: x25+x58 <=1 
C736: x25+x59-y25_59 <=1 
C737: x26+x28-y26_28 <=1 
C738: x26+x29-y26_29 <=1 
C739: x26+x34-y26_34 <=1 
C740: x26+x37-y26_37 <=1 
C741: x26+x38 <=1 
C742: x26+x39-y26_39 <=1 
C743: x26+x40-y26_40 <=1 
C744: x26+x41 <=1 
C745: x26+x42 <=1 
C746: x26+x44 <=1 
C747: x26+x45-y26_45 <=1 
C748: x26+x47 <=1 
C749: x26+x49-y26_49 <=1 
C750: x26+x52 <=1 
C751: x26+x54-y26_54 <=1 
C752: x26+x55 <=1 
C753: x26+x56-y26_56 <=1 
C754: x27+x29 <=1 
C755: x27+x30-y27_30 <=1 
C756: x27+x32 <=1 
C757: x27+x33 <=1 
C758: x27+x35-y27_35 <=1 
C759: x27+x36 <=1 
C760: x27+x37 <=1 
C761: x27+x39-y27_39 <=1 
C762: x27+x40-y27_40 <=1 
C763: x27+x43 <=1 
C764: x27+x47 <=1 
C765: x27+x50-y27_50 <=1 
C766: x27+x51 <=1 
C767: x27+x54 <=1 
C768: x27+x57 <=1 
C769: x27+x58-y27_58 <=1 
C770: x28+x30 <=1 
C771: x28+x31-y28_31 <=1 
C772: x28+x32 <=1 
C773: x28+x33-y28_33 <=1 
C774: x28+x35 <=1 
C775: x28+x36-y28_36 <=1 
C776: x28+x38-y28_38 <=1 
C777: x28+x40-y28_40 <=1 
C778: x28+x41 <=1 
C779: x28+x42 <=1 
C780: x28+x44-y28_44 <=1 
C781: x28+x45 <=1 
C782: x28+x46 <=1 
C783: x28+x47-y28_47 <=1 
C784: x28+x48 <=1 
C785: x28+x49-y28_49 <=1 
C786: x28+x52-y28_52 <=1 
C787: x28+x53 <=1 
C788: x28+x54 <=1 
C789: x28+x55-y28_55 <=1 
C790: x28+x57 <=1 
C791: x29+x30 <=1 
C792: x29+x34-y29_34 <=1 
C793: x29+x36-y29_36 <=1 
C794: x29+x38 <=1 
C795: x29+x40-y29_40 <=1 
C796: x29+x43-y29_43 <=1 
C797: x29+x44 <=1 
C798: x29+x45-y29_45 <=1 
C799: x29+x47-y29_47 <=1 
C800: x29+x48-y29_48 <=1 
C801: x29+x50 <=1 
C802: x29+x53-y29_53 <=1 
C803: x29+x54 <=1 
C804: x29+x55 <=1 
C805: x29+x57 <=1 
C806: x29+x58 <=1 
C807: x29+x59 <=1 
C808: x30+x33 <=1 
C809: x30+x35 <=1 
C810: x30+x37-y30_37 <=1 
C811: x30+x38 <=1 
C812: x30+x39 <=1 
C813: x30+x41-y30_41 <=1 
C814: x30+x46-y30_46 <=1 
C815: x30+x48 <=1 
C816: x30+x49-y30_49 <=1 
C817: x30+x50 <=1 
C818: x30+x51-y30_51 <=1 
C819: x30+x52-y30_52 <=1 
C820: x30+x53-y30_53 <=1 
C821: x30+x54-y30_54 <=1 
C822: x30+x55-y30_55 <=1 
C823: x30+x56-y30_56 <=1 
C824: x30+x57-y30_57 <=1 
C825: x30+x59-y30_59 <=1 
C826: x31+x32-y31_32 <=1 
C827: x31+x34-y31_34 <=1 
C828: x31+x35-y31_35 <=1 
C829: x31+x36-y31_36 <=1 
C830: x31+x37 <=1 
C831: x31+x40-y31_40 <=1 
C832: x31+x41 <=1 
C833: x31+x42 <=1 
C834: x31+x43 <=1 
C835: x31+x44-y31_44 <=1 
C836: x31+x45-y31_45 <=1 
C837: x31+x47 <=1 
C838: x31+x49 <=1 
C839: x31+x50-y31_50 <=1 
C840: x31+x51-y31_51 <=1 
C841: x31+x54 <=1 
C842: x31+x55-y31_55 <=1 
C843: x31+x58 <=1 
C844: x31+x59-y31_59 <=1 
C845: x32+x33-y32_33 <=1 
C846: x32+x34-y32_34 <=1 
C847: x32+x35 <=1 
C848: x32+x36-y32_36 <=1 
C849: x32+x38 <=1 
C850: x32+x40-y32_40 <=1 
C851: x32+x42 <=1 
C852: x32+x43-y32_43 <=1 
C853: x32+x44 <=1 
C854: x32+x45 <=1 
C855: x32+x47-y32_47 <=1 
C856: x32+x50-y32_50 <=1 
C857: x32+x51-y32_51 <=1 
C858: x32+x52 <=1 
C859: x32+x53 <=1 
C860: x32+x54 <=1 
C861: x32+x56 <=1 
C862: x32+x59 <=1 
C863: x33+x35-y33_35 <=1 
C864: x33+x36-y33_36 <=1 
C865: x33+x37 <=1 
C866: x33+x42 <=1 
C867: x33+x44 <=1 
C868: x33+x45 <=1 
C869: x33+x46-y33_46 <=1 
C870: x33+x48-y33_48 <=1 
C871: x33+x50-y33_50 <=1 
C872: x33+x51 <=1 
C873: x33+x52-y33_52 <=1 
C874: x33+x57-y33_57 <=1 
C875: x33+x58 <=1 
C876: x33+x59-y33_59 <=1 
C877: x34+x35 <=1 
C878: x34+x37-y34_37 <=1 
C879: x34+x39-y34_39 <=1 
C880: x34+x40 <=1 
C881: x34+x41-y34_41 <=1 
C882: x34+x42-y34_42 <=1 
C883: x34+x44 <=1 
C884: x34+x45 <=1 
C885: x34+x47-y34_47 <=1 
C886: x34+x48 <=1 
C887: x34+x49-y34_49 <=1 
C888: x34+x52-y34_52 <=1 
C889: x34+x53-y34_53 <=1 
C890: x34+x55-y34_55 <=1 
C891: x34+x58-y34_58 <=1 
C892: x35+x37-y35_37 <=1 
C893: x35+x39-y35_39 <=1 
C894: x35+x41 <=1 
C895: x35+x44-y35_44 <=1 
C896: x35+x45-y35_45 <=1 
C897: x35+x46 <=1 
C898: x35+x48-y35_48 <=1 
C899: x35+x50-y35_50 <=1 
C900: x35+x52 <=1 
C901: x35+x53 <=1 
C902: x35+x54 <=1 
C903: x35+x55-y35_55 <=1 
C904: x35+x56-y35_56 <=1 
C905: x35+x57 <=1 
C906: x35+x58 <=1 
C907: x35+x59-y35_59 <=1 
C908: x36+x40 <=1 
C909: x36+x42 <=1 
C910: x36+x46-y36_46 <=1 
C911: x36+x48 <=1 
C912: x36+x52 <=1 
C913: x36+x53 <=1 
C914: x36+x54-y36_54 <=1 
C915: x36+x55 <=1 
C916: x36+x56-y36_56 <=1 
C917: x36+x58-y36_58 <=1 
C918: x36+x59-y36_59 <=1 
C919: x37+x38-y37_38 <=1 
C920: x37+x41 <=1 
C921: x37+x42-y37_42 <=1 
C922: x37+x43-y37_43 <=1 
C923: x37+x44-y37_44 <=1 
C924: x37+x45 <=1 
C925: x37+x47 <=1 
C926: x37+x48 <=1 
C927: x37+x50-y37_50 <=1 
C928: x37+x51 <=1 
C929: x37+x52-y37_52 <=1 
C930: x37+x53-y37_53 <=1 
C931: x37+x54-y37_54 <=1 
C932: x37+x55-y37_55 <=1 
C933: x37+x56 <=1 
C934: x37+x57-y37_57 <=1 
C935: x37+x58 <=1 
C936: x37+x59 <=1 
C937: x38+x39-y38_39 <=1 
C938: x38+x40-y38_40 <=1 
C939: x38+x47 <=1 
C940: x38+x51 <=1 
C941: x38+x53 <=1 
C942: x38+x56-y38_56 <=1 
C943: x38+x59 <=1 
C944: x39+x43 <=1 
C945: x39+x44-y39_44 <=1 
C946: x39+x45 <=1 
C947: x39+x47-y39_47 <=1 
C948: x39+x52-y39_52 <=1 
C949: x39+x53-y39_53 <=1 
C950: x39+x54 <=1 
C951: x39+x55-y39_55 <=1 
C952: x39+x58-y39_58 <=1 
C953: x40+x46 <=1 
C954: x40+x48 <=1 
C955: x40+x49 <=1 
C956: x40+x50 <=1 
C957: x40+x51-y40_51 <=1 
C958: x40+x53-y40_53 <=1 
C959: x40+x55-y40_55 <=1 
C960: x40+x56 <=1 
C961: x40+x58 <=1 
C962: x40+x59 <=1 
C963: x41+x42 <=1 
C964: x41+x43 <=1 
C965: x41+x45 <=1 
C966: x41+x46 <=1 
C967: x41+x48-y41_48 <=1 
C968: x41+x51 <=1 
C969: x41+x52-y41_52 <=1 
C970: x41+x53 <=1 
C971: x41+x55-y41_55 <=1 
C972: x41+x56 <=1 
C973: x41+x58 <=1 
C974: x41+x59-y41_59 <=1 
C975: x42+x44-y42_44 <=1 
C976: x42+x45 <=1 
C977: x42+x46 <=1 
C978: x42+x51-y42_51 <=1 
C979: x42+x52-y42_52 <=1 
C980: x42+x53-y42_53 <=1 
C981: x42+x54 <=1 
C982: x42+x55 <=1 
C983: x42+x57-y42_57 <=1 
C984: x42+x58 <=1 
C985: x42+x59 <=1 
C986: x43+x45-y43_45 <=1 
C987: x43+x46-y43_46 <=1 
C988: x43+x47 <=1 
C989: x43+x49-y43_49 <=1 
C990: x43+x51-y43_51 <=1 
C991: x43+x52-y43_52 <=1 
C992: x43+x54-y43_54 <=1 
C993: x43+x56 <=1 
C994: x43+x58 <=1 
C995: x43+x59 <=1 
C996: x44+x46-y44_46 <=1 
C997: x44+x48-y44_48 <=1 
C998: x44+x49 <=1 
C999: x44+x50 <=1 
C1000: x44+x51 <=1 
C1001: x44+x52 <=1 
C1002: x44+x53 <=1 
C1003: x44+x55 <=1 
C1004: x44+x56 <=1 
C1005: x45+x46 <=1 
C1006: x45+x49 <=1 
C1007: x45+x51-y45_51 <=1 
C1008: x45+x53 <=1 
C1009: x45+x56-y45_56 <=1 
C1010: x45+x58 <=1 
C1011: x46+x47 <=1 
C1012: x46+x49 <=1 
C1013: x46+x52-y46_52 <=1 
C1014: x46+x54 <=1 
C1015: x46+x55-y46_55 <=1 
C1016: x46+x56-y46_56 <=1 
C1017: x46+x59 <=1 
C1018: x47+x48-y47_48 <=1 
C1019: x47+x50 <=1 
C1020: x47+x55 <=1 
C1021: x47+x57 <=1 
C1022: x47+x58 <=1 
C1023: x48+x49 <=1 
C1024: x48+x54 <=1 
C1025: x48+x56-y48_56 <=1 
C1026: x48+x57 <=1 
C1027: x48+x58 <=1 
C1028: x48+x59-y48_59 <=1 
C1029: x49+x53-y49_53 <=1 
C1030: x49+x54-y49_54 <=1 
C1031: x49+x55 <=1 
C1032: x49+x57-y49_57 <=1 
C1033: x49+x58 <=1 
C1034: x50+x51 <=1 
C1035: x50+x55-y50_55 <=1 
C1036: x50+x57-y50_57 <=1 
C1037: x50+x59-y50_59 <=1 
C1038: x51+x53 <=1 
C1039: x51+x54-y51_54 <=1 
C1040: x51+x55-y51_55 <=1 
C1041: x51+x57-y51_57 <=1 
C1042: x52+x54-y52_54 <=1 
C1043: x52+x55 <=1 
C1044: x53+x54-y53_54 <=1 
C1045: x53+x55 <=1 
C1046: x53+x56-y53_56 <=1 
C1047: x53+x58-y53_58 <=1 
C1048: x53+x59 <=1 
C1049: x54+x56-y54_56 <=1 
C1050: x54+x57-y54_57 <=1 
C1051: x54+x58-y54_58 <=1 
C1052: x54+x59-y54_59 <=1 
C1053: x55+x57 <=1 
C1054: x55+x58-y55_58 <=1 
C1055: x55+x59-y55_59 <=1 
C1056: x56+x59-y56_59 <=1 
C1057: x57+x58 <=1 
C1058: x57+x59 <=1 

binary
x0
x1
x2
x3
x4
x5
x6
x7
x8
x9
x10
x11
x12
x13
x14
x15
x16
x17
x18
x19
x20
x21
x22
x23
x24
x25
x26
x27
x28
x29
x30
x31
x32
x33
x34
x35
x36
x37
x38
x39
x40
x41
x42
x43
x44
x45
x46
x47
x48
x49
x50
x51
x52
x53
x54
x55
x56
x57
x58
x59
