problem_generation/data/GISP/train/er_n=60_m=1058_p=0.60_SET2_setparam=100.00_alpha=0.50_944.sol
objective value:                                 1183
x4                                                  1 	(obj:100)
x6                                                  1 	(obj:100)
x8                                                  1 	(obj:100)
x10                                                 1 	(obj:100)
x11                                                 1 	(obj:100)
x15                                                 1 	(obj:100)
x23                                                 1 	(obj:100)
x29                                                 1 	(obj:100)
x35                                                 1 	(obj:100)
x42                                                 1 	(obj:100)
x49                                                 1 	(obj:100)
x56                                                 1 	(obj:100)
y4_49                                               1 	(obj:-1)
y10_11                                              1 	(obj:-1)
y4_11                                               1 	(obj:-1)
y8_49                                               1 	(obj:-1)
y11_35                                              1 	(obj:-1)
y15_23                                              1 	(obj:-1)
y8_11                                               1 	(obj:-1)
y10_29                                              1 	(obj:-1)
y10_56                                              1 	(obj:-1)
y10_42                                              1 	(obj:-1)
y10_23                                              1 	(obj:-1)
y4_42                                               1 	(obj:-1)
y35_56                                              1 	(obj:-1)
y8_10                                               1 	(obj:-1)
y11_15                                              1 	(obj:-1)
y11_42                                              1 	(obj:-1)
y15_35                                              1 	(obj:-1)
